letting numberLocations be  33
letting costs be function (
(0,0) --> 0,
(0,1) --> 52,
(0,2) --> 38,
(0,3) --> 76,
(0,4) --> 34,
(0,5) --> 32,
(0,6) --> 40,
(0,7) --> 37,
(0,8) --> 49,
(0,9) --> 57,
(0,10) --> 32,
(0,11) --> 62,
(0,12) --> 68,
(0,13) --> 36,
(0,14) --> 32,
(0,15) --> 42,
(0,16) --> 47,
(0,17) --> 69,
(0,18) --> 28,
(0,19) --> 70,
(0,20) --> 12,
(0,21) --> 42,
(0,22) --> 55,
(0,23) --> 60,
(0,24) --> 44,
(0,25) --> 65,
(0,26) --> 17,
(0,27) --> 52,
(0,28) --> 66,
(0,29) --> 39,
(0,30) --> 42,
(0,31) --> 70,
(0,32) --> 75,
(0,33) --> 37,
(1,0) --> 52,
(1,1) --> 0,
(1,2) --> 75,
(1,3) --> 104,
(1,4) --> 82,
(1,5) --> 35,
(1,6) --> 20,
(1,7) --> 23,
(1,8) --> 12,
(1,9) --> 89,
(1,10) --> 39,
(1,11) --> 17,
(1,12) --> 98,
(1,13) --> 40,
(1,14) --> 22,
(1,15) --> 18,
(1,16) --> 86,
(1,17) --> 40,
(1,18) --> 68,
(1,19) --> 38,
(1,20) --> 64,
(1,21) --> 60,
(1,22) --> 91,
(1,23) --> 8,
(1,24) --> 22,
(1,25) --> 45,
(1,26) --> 62,
(1,27) --> 4,
(1,28) --> 50,
(1,29) --> 14,
(1,30) --> 23,
(1,31) --> 49,
(1,32) --> 73,
(1,33) --> 85,
(2,0) --> 38,
(2,1) --> 75,
(2,2) --> 0,
(2,3) --> 38,
(2,4) --> 58,
(2,5) --> 68,
(2,6) --> 56,
(2,7) --> 52,
(2,8) --> 66,
(2,9) --> 19,
(2,10) --> 37,
(2,11) --> 77,
(2,12) --> 30,
(2,13) --> 38,
(2,14) --> 54,
(2,15) --> 58,
(2,16) --> 11,
(2,17) --> 71,
(2,18) --> 11,
(2,19) --> 73,
(2,20) --> 33,
(2,21) --> 23,
(2,22) --> 17,
(2,23) --> 83,
(2,24) --> 77,
(2,25) --> 62,
(2,26) --> 51,
(2,27) --> 77,
(2,28) --> 59,
(2,29) --> 62,
(2,30) --> 75,
(2,31) --> 65,
(2,32) --> 54,
(2,33) --> 21,
(3,0) --> 76,
(3,1) --> 104,
(3,2) --> 38,
(3,3) --> 0,
(3,4) --> 94,
(3,5) --> 104,
(3,6) --> 84,
(3,7) --> 81,
(3,8) --> 93,
(3,9) --> 19,
(3,10) --> 65,
(3,11) --> 100,
(3,12) --> 8,
(3,13) --> 64,
(3,14) --> 85,
(3,15) --> 86,
(3,16) --> 32,
(3,17) --> 85,
(3,18) --> 49,
(3,19) --> 88,
(3,20) --> 70,
(3,21) --> 44,
(3,22) --> 24,
(3,23) --> 110,
(3,24) --> 111,
(3,25) --> 75,
(3,26) --> 89,
(3,27) --> 107,
(3,28) --> 70,
(3,29) --> 92,
(3,30) --> 109,
(3,31) --> 76,
(3,32) --> 50,
(3,33) --> 52,
(4,0) --> 34,
(4,1) --> 82,
(4,2) --> 58,
(4,3) --> 94,
(4,4) --> 0,
(4,5) --> 50,
(4,6) --> 73,
(4,7) --> 70,
(4,8) --> 81,
(4,9) --> 76,
(4,10) --> 65,
(4,11) --> 94,
(4,12) --> 86,
(4,13) --> 70,
(4,14) --> 64,
(4,15) --> 75,
(4,16) --> 62,
(4,17) --> 103,
(4,18) --> 49,
(4,19) --> 103,
(4,20) --> 29,
(4,21) --> 72,
(4,22) --> 70,
(4,23) --> 89,
(4,24) --> 67,
(4,25) --> 99,
(4,26) --> 20,
(4,27) --> 80,
(4,28) --> 100,
(4,29) --> 70,
(4,30) --> 65,
(4,31) --> 103,
(4,32) --> 106,
(4,33) --> 43,
(5,0) --> 32,
(5,1) --> 35,
(5,2) --> 68,
(5,3) --> 104,
(5,4) --> 50,
(5,5) --> 0,
(5,6) --> 37,
(5,7) --> 36,
(5,8) --> 39,
(5,9) --> 86,
(5,10) --> 45,
(5,11) --> 51,
(5,12) --> 97,
(5,13) --> 48,
(5,14) --> 28,
(5,15) --> 38,
(5,16) --> 78,
(5,17) --> 69,
(5,18) --> 58,
(5,19) --> 68,
(5,20) --> 43,
(5,21) --> 64,
(5,22) --> 85,
(5,23) --> 42,
(5,24) --> 16,
(5,25) --> 70,
(5,26) --> 32,
(5,27) --> 33,
(5,28) --> 73,
(5,29) --> 29,
(5,30) --> 15,
(5,31) --> 74,
(5,32) --> 90,
(5,33) --> 68,
(6,0) --> 40,
(6,1) --> 20,
(6,2) --> 56,
(6,3) --> 84,
(6,4) --> 73,
(6,5) --> 37,
(6,6) --> 0,
(6,7) --> 4,
(6,8) --> 10,
(6,9) --> 69,
(6,10) --> 20,
(6,11) --> 22,
(6,12) --> 78,
(6,13) --> 20,
(6,14) --> 10,
(6,15) --> 2,
(6,16) --> 67,
(6,17) --> 32,
(6,18) --> 50,
(6,19) --> 32,
(6,20) --> 51,
(6,21) --> 40,
(6,22) --> 72,
(6,23) --> 27,
(6,24) --> 33,
(6,25) --> 33,
(6,26) --> 54,
(6,27) --> 23,
(6,28) --> 36,
(6,29) --> 10,
(6,30) --> 32,
(6,31) --> 37,
(6,32) --> 56,
(6,33) --> 68,
(7,0) --> 37,
(7,1) --> 23,
(7,2) --> 52,
(7,3) --> 81,
(7,4) --> 70,
(7,5) --> 36,
(7,6) --> 4,
(7,7) --> 0,
(7,8) --> 14,
(7,9) --> 66,
(7,10) --> 16,
(7,11) --> 26,
(7,12) --> 74,
(7,13) --> 17,
(7,14) --> 8,
(7,15) --> 6,
(7,16) --> 63,
(7,17) --> 34,
(7,18) --> 46,
(7,19) --> 34,
(7,20) --> 47,
(7,21) --> 37,
(7,22) --> 68,
(7,23) --> 30,
(7,24) --> 34,
(7,25) --> 34,
(7,26) --> 51,
(7,27) --> 26,
(7,28) --> 36,
(7,29) --> 12,
(7,30) --> 33,
(7,31) --> 38,
(7,32) --> 55,
(7,33) --> 64,
(8,0) --> 49,
(8,1) --> 12,
(8,2) --> 66,
(8,3) --> 93,
(8,4) --> 81,
(8,5) --> 39,
(8,6) --> 10,
(8,7) --> 14,
(8,8) --> 0,
(8,9) --> 79,
(8,10) --> 30,
(8,11) --> 13,
(8,12) --> 87,
(8,13) --> 30,
(8,14) --> 17,
(8,15) --> 8,
(8,16) --> 77,
(8,17) --> 31,
(8,18) --> 61,
(8,19) --> 29,
(8,20) --> 60,
(8,21) --> 49,
(8,22) --> 82,
(8,23) --> 17,
(8,24) --> 30,
(8,25) --> 34,
(8,26) --> 61,
(8,27) --> 15,
(8,28) --> 39,
(8,29) --> 11,
(8,30) --> 31,
(8,31) --> 38,
(8,32) --> 62,
(8,33) --> 78,
(9,0) --> 57,
(9,1) --> 89,
(9,2) --> 19,
(9,3) --> 19,
(9,4) --> 76,
(9,5) --> 86,
(9,6) --> 69,
(9,7) --> 66,
(9,8) --> 79,
(9,9) --> 0,
(9,10) --> 49,
(9,11) --> 87,
(9,12) --> 11,
(9,13) --> 49,
(9,14) --> 68,
(9,15) --> 71,
(9,16) --> 15,
(9,17) --> 76,
(9,18) --> 30,
(9,19) --> 78,
(9,20) --> 51,
(9,21) --> 30,
(9,22) --> 8,
(9,23) --> 96,
(9,24) --> 93,
(9,25) --> 66,
(9,26) --> 70,
(9,27) --> 91,
(9,28) --> 62,
(9,29) --> 76,
(9,30) --> 92,
(9,31) --> 68,
(9,32) --> 48,
(9,33) --> 35,
(10,0) --> 32,
(10,1) --> 39,
(10,2) --> 37,
(10,3) --> 65,
(10,4) --> 65,
(10,5) --> 45,
(10,6) --> 20,
(10,7) --> 16,
(10,8) --> 30,
(10,9) --> 49,
(10,10) --> 0,
(10,11) --> 40,
(10,12) --> 58,
(10,13) --> 4,
(10,14) --> 20,
(10,15) --> 22,
(10,16) --> 48,
(10,17) --> 39,
(10,18) --> 32,
(10,19) --> 40,
(10,20) --> 38,
(10,21) --> 21,
(10,22) --> 52,
(10,23) --> 47,
(10,24) --> 47,
(10,25) --> 34,
(10,26) --> 48,
(10,27) --> 42,
(10,28) --> 34,
(10,29) --> 27,
(10,30) --> 46,
(10,31) --> 38,
(10,32) --> 46,
(10,33) --> 51,
(11,0) --> 62,
(11,1) --> 17,
(11,2) --> 77,
(11,3) --> 100,
(11,4) --> 94,
(11,5) --> 51,
(11,6) --> 22,
(11,7) --> 26,
(11,8) --> 13,
(11,9) --> 87,
(11,10) --> 40,
(11,11) --> 0,
(11,12) --> 95,
(11,13) --> 39,
(11,14) --> 30,
(11,15) --> 20,
(11,16) --> 87,
(11,17) --> 25,
(11,18) --> 72,
(11,19) --> 22,
(11,20) --> 73,
(11,21) --> 58,
(11,22) --> 91,
(11,23) --> 16,
(11,24) --> 39,
(11,25) --> 32,
(11,26) --> 74,
(11,27) --> 21,
(11,28) --> 38,
(11,29) --> 24,
(11,30) --> 40,
(11,31) --> 35,
(11,32) --> 63,
(11,33) --> 90,
(12,0) --> 68,
(12,1) --> 98,
(12,2) --> 30,
(12,3) --> 8,
(12,4) --> 86,
(12,5) --> 97,
(12,6) --> 78,
(12,7) --> 74,
(12,8) --> 87,
(12,9) --> 11,
(12,10) --> 58,
(12,11) --> 95,
(12,12) --> 0,
(12,13) --> 58,
(12,14) --> 78,
(12,15) --> 79,
(12,16) --> 24,
(12,17) --> 82,
(12,18) --> 40,
(12,19) --> 84,
(12,20) --> 62,
(12,21) --> 38,
(12,22) --> 16,
(12,23) --> 104,
(12,24) --> 103,
(12,25) --> 71,
(12,26) --> 81,
(12,27) --> 100,
(12,28) --> 66,
(12,29) --> 85,
(12,30) --> 102,
(12,31) --> 72,
(12,32) --> 49,
(12,33) --> 44,
(13,0) --> 36,
(13,1) --> 40,
(13,2) --> 38,
(13,3) --> 64,
(13,4) --> 70,
(13,5) --> 48,
(13,6) --> 20,
(13,7) --> 17,
(13,8) --> 30,
(13,9) --> 49,
(13,10) --> 4,
(13,11) --> 39,
(13,12) --> 58,
(13,13) --> 0,
(13,14) --> 22,
(13,15) --> 22,
(13,16) --> 49,
(13,17) --> 36,
(13,18) --> 35,
(13,19) --> 37,
(13,20) --> 43,
(13,21) --> 20,
(13,22) --> 52,
(13,23) --> 47,
(13,24) --> 49,
(13,25) --> 30,
(13,26) --> 53,
(13,27) --> 43,
(13,28) --> 30,
(13,29) --> 28,
(13,30) --> 48,
(13,31) --> 34,
(13,32) --> 42,
(13,33) --> 53,
(14,0) --> 32,
(14,1) --> 22,
(14,2) --> 54,
(14,3) --> 85,
(14,4) --> 64,
(14,5) --> 28,
(14,6) --> 10,
(14,7) --> 8,
(14,8) --> 17,
(14,9) --> 68,
(14,10) --> 20,
(14,11) --> 30,
(14,12) --> 78,
(14,13) --> 22,
(14,14) --> 0,
(14,15) --> 11,
(14,16) --> 64,
(14,17) --> 42,
(14,18) --> 46,
(14,19) --> 42,
(14,20) --> 43,
(14,21) --> 41,
(14,22) --> 70,
(14,23) --> 30,
(14,24) --> 27,
(14,25) --> 42,
(14,26) --> 44,
(14,27) --> 23,
(14,28) --> 45,
(14,29) --> 8,
(14,30) --> 26,
(14,31) --> 46,
(14,32) --> 63,
(14,33) --> 63,
(15,0) --> 42,
(15,1) --> 18,
(15,2) --> 58,
(15,3) --> 86,
(15,4) --> 75,
(15,5) --> 38,
(15,6) --> 2,
(15,7) --> 6,
(15,8) --> 8,
(15,9) --> 71,
(15,10) --> 22,
(15,11) --> 20,
(15,12) --> 79,
(15,13) --> 22,
(15,14) --> 11,
(15,15) --> 0,
(15,16) --> 69,
(15,17) --> 31,
(15,18) --> 52,
(15,19) --> 31,
(15,20) --> 52,
(15,21) --> 42,
(15,22) --> 74,
(15,23) --> 25,
(15,24) --> 32,
(15,25) --> 32,
(15,26) --> 56,
(15,27) --> 21,
(15,28) --> 36,
(15,29) --> 10,
(15,30) --> 32,
(15,31) --> 36,
(15,32) --> 57,
(15,33) --> 70,
(16,0) --> 47,
(16,1) --> 86,
(16,2) --> 11,
(16,3) --> 32,
(16,4) --> 62,
(16,5) --> 78,
(16,6) --> 67,
(16,7) --> 63,
(16,8) --> 77,
(16,9) --> 15,
(16,10) --> 48,
(16,11) --> 87,
(16,12) --> 24,
(16,13) --> 49,
(16,14) --> 64,
(16,15) --> 69,
(16,16) --> 0,
(16,17) --> 80,
(16,18) --> 20,
(16,19) --> 82,
(16,20) --> 39,
(16,21) --> 32,
(16,22) --> 8,
(16,23) --> 94,
(16,24) --> 87,
(16,25) --> 71,
(16,26) --> 58,
(16,27) --> 88,
(16,28) --> 68,
(16,29) --> 72,
(16,30) --> 86,
(16,31) --> 74,
(16,32) --> 59,
(16,33) --> 20,
(17,0) --> 69,
(17,1) --> 40,
(17,2) --> 71,
(17,3) --> 85,
(17,4) --> 103,
(17,5) --> 69,
(17,6) --> 32,
(17,7) --> 34,
(17,8) --> 31,
(17,9) --> 76,
(17,10) --> 39,
(17,11) --> 25,
(17,12) --> 82,
(17,13) --> 36,
(17,14) --> 42,
(17,15) --> 31,
(17,16) --> 80,
(17,17) --> 0,
(17,18) --> 70,
(17,19) --> 3,
(17,20) --> 78,
(17,21) --> 48,
(17,22) --> 82,
(17,23) --> 41,
(17,24) --> 61,
(17,25) --> 11,
(17,26) --> 85,
(17,27) --> 44,
(17,28) --> 16,
(17,29) --> 40,
(17,30) --> 61,
(17,31) --> 11,
(17,32) --> 41,
(17,33) --> 89,
(18,0) --> 28,
(18,1) --> 68,
(18,2) --> 11,
(18,3) --> 49,
(18,4) --> 49,
(18,5) --> 58,
(18,6) --> 50,
(18,7) --> 46,
(18,8) --> 61,
(18,9) --> 30,
(18,10) --> 32,
(18,11) --> 72,
(18,12) --> 40,
(18,13) --> 35,
(18,14) --> 46,
(18,15) --> 52,
(18,16) --> 20,
(18,17) --> 70,
(18,18) --> 0,
(18,19) --> 71,
(18,20) --> 22,
(18,21) --> 25,
(18,22) --> 27,
(18,23) --> 76,
(18,24) --> 68,
(18,25) --> 62,
(18,26) --> 41,
(18,27) --> 70,
(18,28) --> 60,
(18,29) --> 54,
(18,30) --> 66,
(18,31) --> 65,
(18,32) --> 59,
(18,33) --> 19,
(19,0) --> 70,
(19,1) --> 38,
(19,2) --> 73,
(19,3) --> 88,
(19,4) --> 103,
(19,5) --> 68,
(19,6) --> 32,
(19,7) --> 34,
(19,8) --> 29,
(19,9) --> 78,
(19,10) --> 40,
(19,11) --> 22,
(19,12) --> 84,
(19,13) --> 37,
(19,14) --> 42,
(19,15) --> 31,
(19,16) --> 82,
(19,17) --> 3,
(19,18) --> 71,
(19,19) --> 0,
(19,20) --> 78,
(19,21) --> 50,
(19,22) --> 84,
(19,23) --> 38,
(19,24) --> 59,
(19,25) --> 13,
(19,26) --> 85,
(19,27) --> 42,
(19,28) --> 19,
(19,29) --> 39,
(19,30) --> 60,
(19,31) --> 14,
(19,32) --> 44,
(19,33) --> 90,
(20,0) --> 12,
(20,1) --> 64,
(20,2) --> 33,
(20,3) --> 70,
(20,4) --> 29,
(20,5) --> 43,
(20,6) --> 51,
(20,7) --> 47,
(20,8) --> 60,
(20,9) --> 51,
(20,10) --> 38,
(20,11) --> 73,
(20,12) --> 62,
(20,13) --> 43,
(20,14) --> 43,
(20,15) --> 52,
(20,16) --> 39,
(20,17) --> 78,
(20,18) --> 22,
(20,19) --> 78,
(20,20) --> 0,
(20,21) --> 43,
(20,22) --> 48,
(20,23) --> 72,
(20,24) --> 56,
(20,25) --> 72,
(20,26) --> 19,
(20,27) --> 64,
(20,28) --> 72,
(20,29) --> 50,
(20,30) --> 54,
(20,31) --> 76,
(20,32) --> 77,
(20,33) --> 26,
(21,0) --> 42,
(21,1) --> 60,
(21,2) --> 23,
(21,3) --> 44,
(21,4) --> 72,
(21,5) --> 64,
(21,6) --> 40,
(21,7) --> 37,
(21,8) --> 49,
(21,9) --> 30,
(21,10) --> 21,
(21,11) --> 58,
(21,12) --> 38,
(21,13) --> 20,
(21,14) --> 41,
(21,15) --> 42,
(21,16) --> 32,
(21,17) --> 48,
(21,18) --> 25,
(21,19) --> 50,
(21,20) --> 43,
(21,21) --> 0,
(21,22) --> 34,
(21,23) --> 67,
(21,24) --> 68,
(21,25) --> 39,
(21,26) --> 59,
(21,27) --> 62,
(21,28) --> 36,
(21,29) --> 48,
(21,30) --> 67,
(21,31) --> 42,
(21,32) --> 34,
(21,33) --> 43,
(22,0) --> 55,
(22,1) --> 91,
(22,2) --> 17,
(22,3) --> 24,
(22,4) --> 70,
(22,5) --> 85,
(22,6) --> 72,
(22,7) --> 68,
(22,8) --> 82,
(22,9) --> 8,
(22,10) --> 52,
(22,11) --> 91,
(22,12) --> 16,
(22,13) --> 52,
(22,14) --> 70,
(22,15) --> 74,
(22,16) --> 8,
(22,17) --> 82,
(22,18) --> 27,
(22,19) --> 84,
(22,20) --> 48,
(22,21) --> 34,
(22,22) --> 0,
(22,23) --> 98,
(22,24) --> 94,
(22,25) --> 72,
(22,26) --> 66,
(22,27) --> 93,
(22,28) --> 68,
(22,29) --> 78,
(22,30) --> 92,
(22,31) --> 74,
(22,32) --> 56,
(22,33) --> 28,
(23,0) --> 60,
(23,1) --> 8,
(23,2) --> 83,
(23,3) --> 110,
(23,4) --> 89,
(23,5) --> 42,
(23,6) --> 27,
(23,7) --> 30,
(23,8) --> 17,
(23,9) --> 96,
(23,10) --> 47,
(23,11) --> 16,
(23,12) --> 104,
(23,13) --> 47,
(23,14) --> 30,
(23,15) --> 25,
(23,16) --> 94,
(23,17) --> 41,
(23,18) --> 76,
(23,19) --> 38,
(23,20) --> 72,
(23,21) --> 67,
(23,22) --> 98,
(23,23) --> 0,
(23,24) --> 27,
(23,25) --> 48,
(23,26) --> 70,
(23,27) --> 9,
(23,28) --> 53,
(23,29) --> 22,
(23,30) --> 28,
(23,31) --> 51,
(23,32) --> 77,
(23,33) --> 93,
(24,0) --> 44,
(24,1) --> 22,
(24,2) --> 77,
(24,3) --> 111,
(24,4) --> 67,
(24,5) --> 16,
(24,6) --> 33,
(24,7) --> 34,
(24,8) --> 30,
(24,9) --> 93,
(24,10) --> 47,
(24,11) --> 39,
(24,12) --> 103,
(24,13) --> 49,
(24,14) --> 27,
(24,15) --> 32,
(24,16) --> 87,
(24,17) --> 61,
(24,18) --> 68,
(24,19) --> 59,
(24,20) --> 56,
(24,21) --> 68,
(24,22) --> 94,
(24,23) --> 27,
(24,24) --> 0,
(24,25) --> 64,
(24,26) --> 48,
(24,27) --> 19,
(24,28) --> 68,
(24,29) --> 22,
(24,30) --> 2,
(24,31) --> 68,
(24,32) --> 89,
(24,33) --> 81,
(25,0) --> 65,
(25,1) --> 45,
(25,2) --> 62,
(25,3) --> 75,
(25,4) --> 99,
(25,5) --> 70,
(25,6) --> 33,
(25,7) --> 34,
(25,8) --> 34,
(25,9) --> 66,
(25,10) --> 34,
(25,11) --> 32,
(25,12) --> 71,
(25,13) --> 30,
(25,14) --> 42,
(25,15) --> 32,
(25,16) --> 71,
(25,17) --> 11,
(25,18) --> 62,
(25,19) --> 13,
(25,20) --> 72,
(25,21) --> 39,
(25,22) --> 72,
(25,23) --> 48,
(25,24) --> 64,
(25,25) --> 0,
(25,26) --> 82,
(25,27) --> 49,
(25,28) --> 6,
(25,29) --> 42,
(25,30) --> 64,
(25,31) --> 4,
(25,32) --> 31,
(25,33) --> 81,
(26,0) --> 17,
(26,1) --> 62,
(26,2) --> 51,
(26,3) --> 89,
(26,4) --> 20,
(26,5) --> 32,
(26,6) --> 54,
(26,7) --> 51,
(26,8) --> 61,
(26,9) --> 70,
(26,10) --> 48,
(26,11) --> 74,
(26,12) --> 81,
(26,13) --> 53,
(26,14) --> 44,
(26,15) --> 56,
(26,16) --> 58,
(26,17) --> 85,
(26,18) --> 41,
(26,19) --> 85,
(26,20) --> 19,
(26,21) --> 59,
(26,22) --> 66,
(26,23) --> 70,
(26,24) --> 48,
(26,25) --> 82,
(26,26) --> 0,
(26,27) --> 61,
(26,28) --> 83,
(26,29) --> 50,
(26,30) --> 46,
(26,31) --> 86,
(26,32) --> 92,
(26,33) --> 43,
(27,0) --> 52,
(27,1) --> 4,
(27,2) --> 77,
(27,3) --> 107,
(27,4) --> 80,
(27,5) --> 33,
(27,6) --> 23,
(27,7) --> 26,
(27,8) --> 15,
(27,9) --> 91,
(27,10) --> 42,
(27,11) --> 21,
(27,12) --> 100,
(27,13) --> 43,
(27,14) --> 23,
(27,15) --> 21,
(27,16) --> 88,
(27,17) --> 44,
(27,18) --> 70,
(27,19) --> 42,
(27,20) --> 64,
(27,21) --> 62,
(27,22) --> 93,
(27,23) --> 9,
(27,24) --> 19,
(27,25) --> 49,
(27,26) --> 61,
(27,27) --> 0,
(27,28) --> 54,
(27,29) --> 15,
(27,30) --> 20,
(27,31) --> 53,
(27,32) --> 77,
(27,33) --> 86,
(28,0) --> 66,
(28,1) --> 50,
(28,2) --> 59,
(28,3) --> 70,
(28,4) --> 100,
(28,5) --> 73,
(28,6) --> 36,
(28,7) --> 36,
(28,8) --> 39,
(28,9) --> 62,
(28,10) --> 34,
(28,11) --> 38,
(28,12) --> 66,
(28,13) --> 30,
(28,14) --> 45,
(28,15) --> 36,
(28,16) --> 68,
(28,17) --> 16,
(28,18) --> 60,
(28,19) --> 19,
(28,20) --> 72,
(28,21) --> 36,
(28,22) --> 68,
(28,23) --> 53,
(28,24) --> 68,
(28,25) --> 6,
(28,26) --> 83,
(28,27) --> 54,
(28,28) --> 0,
(28,29) --> 46,
(28,30) --> 68,
(28,31) --> 6,
(28,32) --> 25,
(28,33) --> 79,
(29,0) --> 39,
(29,1) --> 14,
(29,2) --> 62,
(29,3) --> 92,
(29,4) --> 70,
(29,5) --> 29,
(29,6) --> 10,
(29,7) --> 12,
(29,8) --> 11,
(29,9) --> 76,
(29,10) --> 27,
(29,11) --> 24,
(29,12) --> 85,
(29,13) --> 28,
(29,14) --> 8,
(29,15) --> 10,
(29,16) --> 72,
(29,17) --> 40,
(29,18) --> 54,
(29,19) --> 39,
(29,20) --> 50,
(29,21) --> 48,
(29,22) --> 78,
(29,23) --> 22,
(29,24) --> 22,
(29,25) --> 42,
(29,26) --> 50,
(29,27) --> 15,
(29,28) --> 46,
(29,29) --> 0,
(29,30) --> 22,
(29,31) --> 46,
(29,32) --> 66,
(29,33) --> 71,
(30,0) --> 42,
(30,1) --> 23,
(30,2) --> 75,
(30,3) --> 109,
(30,4) --> 65,
(30,5) --> 15,
(30,6) --> 32,
(30,7) --> 33,
(30,8) --> 31,
(30,9) --> 92,
(30,10) --> 46,
(30,11) --> 40,
(30,12) --> 102,
(30,13) --> 48,
(30,14) --> 26,
(30,15) --> 32,
(30,16) --> 86,
(30,17) --> 61,
(30,18) --> 66,
(30,19) --> 60,
(30,20) --> 54,
(30,21) --> 67,
(30,22) --> 92,
(30,23) --> 28,
(30,24) --> 2,
(30,25) --> 64,
(30,26) --> 46,
(30,27) --> 20,
(30,28) --> 68,
(30,29) --> 22,
(30,30) --> 0,
(30,31) --> 68,
(30,32) --> 88,
(30,33) --> 79,
(31,0) --> 70,
(31,1) --> 49,
(31,2) --> 65,
(31,3) --> 76,
(31,4) --> 103,
(31,5) --> 74,
(31,6) --> 37,
(31,7) --> 38,
(31,8) --> 38,
(31,9) --> 68,
(31,10) --> 38,
(31,11) --> 35,
(31,12) --> 72,
(31,13) --> 34,
(31,14) --> 46,
(31,15) --> 36,
(31,16) --> 74,
(31,17) --> 11,
(31,18) --> 65,
(31,19) --> 14,
(31,20) --> 76,
(31,21) --> 42,
(31,22) --> 74,
(31,23) --> 51,
(31,24) --> 68,
(31,25) --> 4,
(31,26) --> 86,
(31,27) --> 53,
(31,28) --> 6,
(31,29) --> 46,
(31,30) --> 68,
(31,31) --> 0,
(31,32) --> 30,
(31,33) --> 84,
(32,0) --> 75,
(32,1) --> 73,
(32,2) --> 54,
(32,3) --> 50,
(32,4) --> 106,
(32,5) --> 90,
(32,6) --> 56,
(32,7) --> 55,
(32,8) --> 62,
(32,9) --> 48,
(32,10) --> 46,
(32,11) --> 63,
(32,12) --> 49,
(32,13) --> 42,
(32,14) --> 63,
(32,15) --> 57,
(32,16) --> 59,
(32,17) --> 41,
(32,18) --> 59,
(32,19) --> 44,
(32,20) --> 77,
(32,21) --> 34,
(32,22) --> 56,
(32,23) --> 77,
(32,24) --> 89,
(32,25) --> 31,
(32,26) --> 92,
(32,27) --> 77,
(32,28) --> 25,
(32,29) --> 66,
(32,30) --> 88,
(32,31) --> 30,
(32,32) --> 0,
(32,33) --> 75,
(33,0) --> 37,
(33,1) --> 85,
(33,2) --> 21,
(33,3) --> 52,
(33,4) --> 43,
(33,5) --> 68,
(33,6) --> 68,
(33,7) --> 64,
(33,8) --> 78,
(33,9) --> 35,
(33,10) --> 51,
(33,11) --> 90,
(33,12) --> 44,
(33,13) --> 53,
(33,14) --> 63,
(33,15) --> 70,
(33,16) --> 20,
(33,17) --> 89,
(33,18) --> 19,
(33,19) --> 90,
(33,20) --> 26,
(33,21) --> 43,
(33,22) --> 28,
(33,23) --> 93,
(33,24) --> 81,
(33,25) --> 81,
(33,26) --> 43,
(33,27) --> 86,
(33,28) --> 79,
(33,29) --> 71,
(33,30) --> 79,
(33,31) --> 84,
(33,32) --> 75,
(33,33) --> 0)
letting orderWeights be function (
1 --> 23
,
2 --> 3
,
3 --> 24
,
4 --> 15
,
5 --> 15
,
6 --> 24
,
7 --> 7
,
8 --> 25
,
9 --> 13
,
10 --> 5
,
11 --> 7
,
12 --> 5
,
13 --> 14
,
14 --> 13
,
15 --> 5
,
16 --> 24
,
17 --> 15
,
18 --> 9
,
19 --> 16
,
20 --> 13
,
21 --> 16
,
22 --> 13
,
23 --> 24
,
24 --> 20
,
25 --> 23
,
26 --> 20
,
27 --> 3
,
28 --> 15
,
29 --> 12
,
30 --> 19
,
31 --> 4
,
32 --> 15
,
33 --> 1
)
letting vehicleCapacity be 100
